Solving original (integer) problem with strategy gdp.hull_exact...
--- Job model.gms Start 02/14/26 23:32:48 52.2.0 d8e408be LEX-LEG x86 64bit/Linux
--- Applying:
    /package/gams/52.2/gmsprmun.txt
--- GAMS Parameters defined
    Input /local/scratch/a/sgusev/repos/k_means/data/gams_gurobi_gdp.hull_exact/no_mode/2026-02-14_23-32-47/original/model.gms
    Output /local/scratch/a/sgusev/repos/k_means/data/gams_gurobi_gdp.hull_exact/no_mode/2026-02-14_23-32-47/original/output.lst
    ScrDir /local/scratch/a/sgusev/repos/k_means/data/gams_gurobi_gdp.hull_exact/no_mode/2026-02-14_23-32-47/original/225a/
    SysDir /package/gams/52.2/
    CurDir /local/scratch/a/sgusev/repos/k_means/data/gams_gurobi_gdp.hull_exact/no_mode/2026-02-14_23-32-47/original/
    LogOption 3
    AppendLog 1
Licensee: David Bernal / SECQUOIA Research Group         G251008+0003Ac-GEN
          Purdue University, Davidson School of Chemical EngineeringDCE4838
          225a/gamslice.dat
          5a82958a-fbca-4a23
          node:66820903 mem:995 cores:48 ipport:40495 v:2                  
          Evaluation license: Not for commercial or production use
          The time-limited license stops working on : Jun 30, 2027
System information: 48 physical cores and 995 Gb physical memory detected
GAMS 52.2.0   Copyright (C) 1987-2025 GAMS Development. All rights reserved
--- Starting compilation
--- model.gms(3818) 2 Mb
--- $echo File /local/scratch/a/sgusev/repos/k_means/data/gams_gurobi_gdp.hull_exact/no_mode/2026-02-14_23-32-47/original/gurobi.opt
--- model.gms(5583) 2 Mb
--- Starting execution: elapsed 0:00:00.021
--- model.gms(3827) 3 Mb
--- Generating MINLP model GAMS_MODEL
--- model.gms(3831) 6 Mb
---   1,165 rows  534 columns  2,805 non-zeroes
---   1,764 nl-code  294 nl-non-zeroes
---   42 discrete-columns
--- Range statistics (absolute non-zero finite values)
--- RHS       [min, max] : [ 1.000E+00, 1.000E+00] - Zero values observed as well
--- Bound     [min, max] : [ 1.000E+00, 1.400E+02] - Zero values observed as well
--- Matrix    [min, max] : [ 1.000E+00, 1.400E+02] - Zero values observed as well
--- model.gms(3831) 4 Mb
--- Executing GUROBI (Solvelink=5): elapsed 0:00:00.028
Reading parameter(s) from "/local/scratch/a/sgusev/repos/k_means/data/gams_gurobi_gdp.hull_exact/no_mode/2026-02-14_23-32-47/original/gurobi.opt"
>>  NonConvex 2
>>  Threads 1
>>  MIPGap 1e-06
>>  MIPGapAbs 1e-10
>>  FeasibilityTol 1e-06
>>  OptimalityTol 1e-06
>>  IntFeasTol 1e-05
Finished reading from "/local/scratch/a/sgusev/repos/k_means/data/gams_gurobi_gdp.hull_exact/no_mode/2026-02-14_23-32-47/original/gurobi.opt"

... GRB_LICENSE_FILE = /local/scratch/a/sgusev/gurobi.lic

    Gurobi           52.2.0 d8e408be Dec 8, 2025           LEG x86 64bit/Linux    

... GAMS/Gurobi Link license.
... GMO Q Extraction (ThreePass): 0.00s

    Gurobi Optimizer version 13.0.0 build v13.0.0rc1 (linux64 - "Oracle Linux Server 9.7")
    
    CPU model: AMD EPYC 7643 48-Core Processor, instruction set [SSE2|AVX|AVX2]
    Thread count: 48 physical cores, 96 logical processors, using up to 1 threads
    
    Non-default parameters:
    TimeLimit  300
    MIPGap  1e-06
    LogToConsole  0
    NonConvex  2
    Threads  1
    
    Optimize a model with 1122 rows, 533 columns and 2496 nonzeros (Min)
    Model fingerprint: 0x30ba4940
    Model has 14 linear objective coefficients
    Model has 42 quadratic constraints
    Variable types: 491 continuous, 42 integer (0 binary)
    Coefficient statistics:
      Matrix range     [1e+00, 1e+02]
      QMatrix range    [2e-03, 2e+00]
      Objective range  [1e+00, 1e+00]
      Bounds range     [1e+00, 1e+02]
      RHS range        [1e+00, 1e+00]
    Presolve removed 210 rows and 224 columns
    Presolve time: 0.01s
    Presolved: 1326 rows, 771 columns, 3652 nonzeros
    Presolved model has 210 quadratic constraint(s)
    Variable types: 729 continuous, 42 integer (42 binary)
    
    Root relaxation: objective 0.000000e+00, 352 iterations, 0.00 seconds (0.00 work units)
    
        Nodes    |    Current Node    |     Objective Bounds      |     Work
     Expl Unexpl |  Obj  Depth IntInf | Incumbent    BestBd   Gap | It/Node Time
    
    H    0     0                      12.9479402    0.00000   100%     -    0s
    *    0     0               0      12.9479402    0.00000   100%     -    0s
         0     0    0.00000    0   12   12.94794    0.00000   100%     -    0s
         0     0    0.00000    0   24   12.94794    0.00000   100%     -    0s
    H    0     0                      10.5636114    0.00000   100%     -    0s
         0     0    0.00000    0   24   10.56361    0.00000   100%     -    0s
         0     0    0.00000    0   27   10.56361    0.00000   100%     -    0s
         0     0    0.00000    0   16   10.56361    0.00000   100%     -    0s
         0     0    0.00000    0   26   10.56361    0.00000   100%     -    0s
         0     0    0.00000    0   22   10.56361    0.00000   100%     -    0s
         0     0    0.00000    0   20   10.56361    0.00000   100%     -    0s
         0     0    0.00000    0   20   10.56361    0.00000   100%     -    0s
         0     0    0.00000    0   24   10.56361    0.00000   100%     -    0s
         0     0    0.00000    0   22   10.56361    0.00000   100%     -    0s
         0     0    0.00000    0   22   10.56361    0.00000   100%     -    0s
         0     0    0.00000    0   22   10.56361    0.00000   100%     -    0s
         0     0    0.00000    0   25   10.56361    0.00000   100%     -    0s
         0     0    0.00000    0   24   10.56361    0.00000   100%     -    0s
         0     0    0.00000    0   24   10.56361    0.00000   100%     -    0s
         0     0    0.00000    0   24   10.56361    0.00000   100%     -    0s
         0     0    0.00000    0   24   10.56361    0.00000   100%     -    0s
         0     0    0.00000    0   24   10.56361    0.00000   100%     -    0s
         0     0    0.00000    0   24   10.56361    0.00000   100%     -    0s
         0     0    0.00000    0   24   10.56361    0.00000   100%     -    0s
         0     0    0.00000    0   24   10.56361    0.00000   100%     -    0s
         0     0    0.00000    0   24   10.56361    0.00000   100%     -    0s
         0     0    0.00000    0   24   10.56361    0.00000   100%     -    0s
         0     0    0.00000    0   14   10.56361    0.00000   100%     -    0s
         0     0    0.00000    0   20   10.56361    0.00000   100%     -    0s
         0     0    0.00000    0   20   10.56361    0.00000   100%     -    0s
         0     0    0.00000    0   22   10.56361    0.00000   100%     -    0s
         0     0    0.00000    0   22   10.56361    0.00000   100%     -    0s
         0     0    0.00000    0   26   10.56361    0.00000   100%     -    0s
         0     0    0.00000    0   19   10.56361    0.00000   100%     -    0s
         0     0    0.00000    0   24   10.56361    0.00000   100%     -    0s
         0     0    0.00000    0   24   10.56361    0.00000   100%     -    0s
         0     0    0.00000    0   26   10.56361    0.00000   100%     -    0s
         0     0    0.00000    0   24   10.56361    0.00000   100%     -    0s
         0     0    0.00000    0   24   10.56361    0.00000   100%     -    0s
         0     0    0.00000    0   22   10.56361    0.00000   100%     -    0s
         0     0    0.00000    0   20   10.56361    0.00000   100%     -    0s
         0     0    0.00000    0   19   10.56361    0.00000   100%     -    0s
         0     0    0.00000    0   24   10.56361    0.00000   100%     -    0s
         0     0    0.00000    0   22   10.56361    0.00000   100%     -    0s
         0     0    0.00000    0   18   10.56361    0.00000   100%     -    0s
         0     0    0.00000    0   18   10.56361    0.00000   100%     -    0s
         0     0    0.00000    0   23   10.56361    0.00000   100%     -    0s
         0     0    0.00000    0   16   10.56361    0.00000   100%     -    0s
         0     0    0.00000    0   26   10.56361    0.00000   100%     -    0s
         0     0    0.00000    0   22   10.56361    0.00000   100%     -    0s
         0     0    0.00000    0   22   10.56361    0.00000   100%     -    0s
         0     0    0.00000    0   22   10.56361    0.00000   100%     -    0s
         0     0    0.00000    0   24   10.56361    0.00000   100%     -    0s
         0     0    0.00000    0   22   10.56361    0.00000   100%     -    0s
         0     0    0.00000    0   22   10.56361    0.00000   100%     -    0s
         0     0    0.00000    0   22   10.56361    0.00000   100%     -    0s
         0     0    0.00000    0   24   10.56361    0.00000   100%     -    0s
         0     0    0.00000    0   20   10.56361    0.00000   100%     -    0s
         0     0    0.00000    0   21   10.56361    0.00000   100%     -    0s
         0     0    0.00000    0   21   10.56361    0.00000   100%     -    0s
         0     0    0.00000    0   23   10.56361    0.00000   100%     -    0s
         0     0    0.00000    0   23   10.56361    0.00000   100%     -    1s
         0     0    0.00000    0   24   10.56361    0.00000   100%     -    1s
         0     0    0.00000    0   22   10.56361    0.00000   100%     -    1s
         0     0    0.00000    0   22   10.56361    0.00000   100%     -    1s
         0     0    0.00000    0   20   10.56361    0.00000   100%     -    1s
         0     0    0.00000    0   22   10.56361    0.00000   100%     -    1s
         0     0    0.00000    0   22   10.56361    0.00000   100%     -    1s
         0     0    0.00000    0   24   10.56361    0.00000   100%     -    1s
         0     0    0.00000    0   24   10.56361    0.00000   100%     -    1s
         0     0    0.00000    0   24   10.56361    0.00000   100%     -    1s
         0     0    0.00000    0   24   10.56361    0.00000   100%     -    1s
         0     0    0.00000    0   22   10.56361    0.00000   100%     -    1s
         0     0    0.00000    0   22   10.56361    0.00000   100%     -    1s
         0     0    0.00000    0   22   10.56361    0.00000   100%     -    1s
         0     0    0.00000    0   22   10.56361    0.00000   100%     -    1s
         0     0    0.00000    0   23   10.56361    0.00000   100%     -    1s
         0     0    0.00000    0   23   10.56361    0.00000   100%     -    1s
         0     0    0.00000    0   23   10.56361    0.00000   100%     -    1s
         0     0    0.00000    0   22   10.56361    0.00000   100%     -    1s
         0     0    0.00000    0   24   10.56361    0.00000   100%     -    1s
         0     0    0.00000    0   21   10.56361    0.00000   100%     -    1s
         0     0    0.00000    0   16   10.56361    0.00000   100%     -    1s
         0     0    0.00000    0   16   10.56361    0.00000   100%     -    1s
         0     0    0.00000    0   21   10.56361    0.00000   100%     -    1s
         0     0    0.00000    0   21   10.56361    0.00000   100%     -    1s
         0     0    0.00000    0   21   10.56361    0.00000   100%     -    1s
         0     0    0.00000    0   21   10.56361    0.00000   100%     -    1s
         0     0    0.00000    0   26   10.56361    0.00000   100%     -    1s
         0     0    0.00000    0   16   10.56361    0.00000   100%     -    1s
         0     0    0.00000    0   16   10.56361    0.00000   100%     -    1s
         0     0    0.00000    0   16   10.56361    0.00000   100%     -    1s
         0     0    0.00000    0   24   10.56361    0.00000   100%     -    1s
         0     0    0.00000    0   24   10.56361    0.00000   100%     -    1s
         0     0    0.00000    0   26   10.56361    0.00000   100%     -    1s
         0     0    0.00000    0   20   10.56361    0.00000   100%     -    1s
         0     0    0.00000    0   24   10.56361    0.00000   100%     -    1s
         0     0    0.00000    0   18   10.56361    0.00000   100%     -    1s
         0     0    0.00000    0   20   10.56361    0.00000   100%     -    1s
         0     0    0.00000    0   20   10.56361    0.00000   100%     -    1s
         0     0    0.00000    0   28   10.56361    0.00000   100%     -    1s
         0     0    0.00000    0   22   10.56361    0.00000   100%     -    1s
         0     0    0.00000    0   28   10.56361    0.00000   100%     -    1s
         0     0    0.00000    0   23   10.56361    0.00000   100%     -    1s
         0     0    0.00000    0   24   10.56361    0.00000   100%     -    1s
         0     0    0.00000    0   22   10.56361    0.00000   100%     -    1s
         0     0    0.00000    0   22   10.56361    0.00000   100%     -    1s
         0     0    0.00000    0   20   10.56361    0.00000   100%     -    1s
         0     0    0.00000    0   24   10.56361    0.00000   100%     -    1s
         0     0    0.00000    0   16   10.56361    0.00000   100%     -    1s
         0     0    0.00000    0   20   10.56361    0.00000   100%     -    1s
         0     0    0.00000    0   20   10.56361    0.00000   100%     -    1s
         0     0    0.00000    0   22   10.56361    0.00000   100%     -    1s
         0     0    0.00000    0   22   10.56361    0.00000   100%     -    1s
         0     0    0.00000    0   26   10.56361    0.00000   100%     -    1s
         0     0    0.00000    0   26   10.56361    0.00000   100%     -    1s
         0     0    0.00000    0   26   10.56361    0.00000   100%     -    1s
         0     0    0.00000    0   24   10.56361    0.00000   100%     -    2s
         0     0    0.00000    0   22   10.56361    0.00000   100%     -    2s
         0     0    0.00000    0   22   10.56361    0.00000   100%     -    2s
         0     0    0.00000    0   22   10.56361    0.00000   100%     -    2s
         0     0    0.00000    0   22   10.56361    0.00000   100%     -    2s
         0     0    0.00000    0   28   10.56361    0.00000   100%     -    2s
         0     0    0.00000    0   22   10.56361    0.00000   100%     -    2s
         0     0    0.00000    0   20   10.56361    0.00000   100%     -    2s
         0     0    0.00000    0   20   10.56361    0.00000   100%     -    2s
         0     0    0.00000    0   22   10.56361    0.00000   100%     -    2s
         0     0    0.00000    0   22   10.56361    0.00000   100%     -    2s
         0     0    0.00000    0   26   10.56361    0.00000   100%     -    2s
         0     0    0.00000    0   26   10.56361    0.00000   100%     -    2s
         0     0    0.00000    0   26   10.56361    0.00000   100%     -    2s
         0     0    0.00000    0   22   10.56361    0.00000   100%     -    2s
         0     0    0.00000    0   22   10.56361    0.00000   100%     -    2s
         0     0    0.00000    0   22   10.56361    0.00000   100%     -    2s
         0     0    0.00000    0   24   10.56361    0.00000   100%     -    2s
         0     0    0.00000    0   24   10.56361    0.00000   100%     -    2s
         0     0    0.00000    0   25   10.56361    0.00000   100%     -    2s
         0     0    0.00000    0   17   10.56361    0.00000   100%     -    2s
         0     0    0.00000    0   24   10.56361    0.00000   100%     -    2s
         0     0    0.00000    0   24   10.56361    0.00000   100%     -    2s
         0     0    0.00000    0   24   10.56361    0.00000   100%     -    2s
         0     0    0.00000    0   24   10.56361    0.00000   100%     -    2s
         0     0    0.00000    0   24   10.56361    0.00000   100%     -    2s
         0     0    0.00000    0   22   10.56361    0.00000   100%     -    2s
         0     0    0.00000    0   24   10.56361    0.00000   100%     -    2s
         0     0    0.00000    0   22   10.56361    0.00000   100%     -    2s
         0     0    0.00000    0   22   10.56361    0.00000   100%     -    2s
         0     0    0.00000    0   14   10.56361    0.00000   100%     -    2s
         0     0    0.00000    0   22   10.56361    0.00000   100%     -    2s
         0     0    0.00000    0   22   10.56361    0.00000   100%     -    2s
         0     0    0.00000    0   24   10.56361    0.00000   100%     -    2s
         0     0    0.00000    0   22   10.56361    0.00000   100%     -    2s
         0     0    0.00000    0   24   10.56361    0.00000   100%     -    2s
         0     0    0.00000    0   24   10.56361    0.00000   100%     -    2s
         0     0    0.00000    0   24   10.56361    0.00000   100%     -    2s
         0     0    0.00000    0   24   10.56361    0.00000   100%     -    2s
         0     0    0.00000    0   22   10.56361    0.00000   100%     -    2s
         0     0    0.00000    0   18   10.56361    0.00000   100%     -    2s
         0     0    0.00000    0   24   10.56361    0.00000   100%     -    2s
         0     0    0.00000    0   20   10.56361    0.00000   100%     -    2s
         0     0    0.00000    0   24   10.56361    0.00000   100%     -    2s
         0     0    0.00000    0   18   10.56361    0.00000   100%     -    2s
         0     0    0.00000    0   22   10.56361    0.00000   100%     -    2s
         0     0    0.00000    0   20   10.56361    0.00000   100%     -    2s
         0     0    0.00000    0   20   10.56361    0.00000   100%     -    2s
         0     0    0.00000    0   20   10.56361    0.00000   100%     -    2s
         0     0    0.00000    0   24   10.56361    0.00000   100%     -    2s
         0     0    0.00000    0   18   10.56361    0.00000   100%     -    2s
         0     0    0.00000    0   24   10.56361    0.00000   100%     -    2s
         0     0    0.00000    0   24   10.56361    0.00000   100%     -    3s
         0     0    0.00000    0   24   10.56361    0.00000   100%     -    3s
         0     0    0.00000    0   22   10.56361    0.00000   100%     -    3s
         0     0    0.00000    0   24   10.56361    0.00000   100%     -    3s
         0     0    0.00000    0   20   10.56361    0.00000   100%     -    3s
         0     0    0.00000    0   20   10.56361    0.00000   100%     -    3s
         0     0    0.00000    0   20   10.56361    0.00000   100%     -    3s
         0     0    0.00000    0   22   10.56361    0.00000   100%     -    3s
         0     0    0.00000    0   22   10.56361    0.00000   100%     -    3s
         0     0    0.00000    0   22   10.56361    0.00000   100%     -    3s
         0     0    0.00000    0   22   10.56361    0.00000   100%     -    3s
         0     0    0.00000    0   22   10.56361    0.00000   100%     -    3s
         0     0    0.00000    0   22   10.56361    0.00000   100%     -    3s
         0     0    0.00000    0   26   10.56361    0.00000   100%     -    3s
         0     0    0.00000    0   24   10.56361    0.00000   100%     -    3s
         0     0    0.00000    0   20   10.56361    0.00000   100%     -    3s
         0     0    0.00000    0   20   10.56361    0.00000   100%     -    3s
         0     0    0.00000    0   22   10.56361    0.00000   100%     -    3s
         0     0    0.00000    0   22   10.56361    0.00000   100%     -    3s
         0     0    0.00000    0   26   10.56361    0.00000   100%     -    3s
         0     0    0.00000    0   22   10.56361    0.00000   100%     -    3s
         0     0    0.00000    0   22   10.56361    0.00000   100%     -    3s
         0     0    0.00000    0   22   10.56361    0.00000   100%     -    3s
         0     0    0.00000    0   22   10.56361    0.00000   100%     -    3s
         0     0    0.00000    0   22   10.56361    0.00000   100%     -    3s
         0     0    0.00000    0   22   10.56361    0.00000   100%     -    3s
         0     0    0.00000    0   22   10.56361    0.00000   100%     -    3s
         0     0    0.00000    0   22   10.56361    0.00000   100%     -    3s
         0     0    0.00000    0   22   10.56361    0.00000   100%     -    3s
         0     0    0.00000    0   24   10.56361    0.00000   100%     -    3s
         0     0    0.00000    0   24   10.56361    0.00000   100%     -    3s
         0     0    0.00000    0   24   10.56361    0.00000   100%     -    3s
         0     0    0.00000    0   22   10.56361    0.00000   100%     -    3s
         0     0    0.00000    0   24   10.56361    0.00000   100%     -    3s
         0     0    0.00000    0   24   10.56361    0.00000   100%     -    3s
         0     2    0.00000    0   23   10.56361    0.00000   100%     -    3s
    H   76    60                      10.5636093    0.00000   100%   161    4s
    H  134   103                       9.3633651    0.00000   100%   141    4s
       284   189    7.85092   20    4    9.36337    0.00000   100%   151    5s
       365   242    7.86988   15   32    9.36337    0.00000   100%   136   10s
       413   274    4.93819   18   29    9.36337    0.00000   100%   120   15s
    H  504   298                       9.3633648    0.04972  99.5%   319   18s
       592   337    6.00855   20   19    9.36336    0.24146  97.4%   305   20s
    H  658   336                       9.3633647    0.69024  92.6%   294   20s
    H 1139   452                       9.1998673    1.77657  80.7%   240   24s
    H 1140   451                       9.1998663    1.77657  80.7%   240   24s
    H 1142   453                       9.1998662    1.77657  80.7%   240   24s
      1292   502    6.71117   21   20    9.19987    2.29353  75.1%   227   25s
    H 1826   696                       9.1849606    2.91484  68.3%   201   27s
    H 2334   851                       9.0305440    3.27289  63.8%   186   29s
    H 2471   900                       9.0305428    3.34260  63.0%   181   29s
    H 2487   910                       9.0305411    3.34260  63.0%   181   29s
      2575   933    7.42885   23   15    9.03054    3.36335  62.8%   178   30s
      4085  1286    4.30949   16   26    9.03054    4.11206  54.5%   152   35s
    H 4392  1327                       8.9715893    4.22236  52.9%   149   36s
    H 4426  1335                       8.9715892    4.23283  52.8%   149   36s
    H 4513  1361                       8.9715892    4.25926  52.5%   148   36s
    H 4612  1371                       8.9715892    4.29192  52.2%   147   36s
      5769  1606    7.84193   23   17    8.97159    4.65221  48.1%   137   40s
      7672  1858    6.61552   20   21    8.97159    5.08493  43.3%   127   45s
      9578  2028    7.17849   23   21    8.97159    5.41992  39.6%   121   50s
     11539  2094     cutoff   24         8.97159    5.79835  35.4%   116   55s
     13611  2083    8.61967   22   14    8.97159    6.14607  31.5%   112   60s
     15799  2013    7.55175   20   21    8.97159    6.48095  27.8%   108   65s
     17956  1818    8.83426   17   17    8.97159    6.88427  23.3%   104   70s
     20185  1497    8.86703   19   18    8.97159    7.30333  18.6%   100   75s
     23120   544     cutoff   24         8.97159    8.18620  8.75%  94.2   80s
    
    Cutting planes:
      Gomory: 1
      Flow cover: 7
    
    Explored 24023 nodes (2310294 simplex iterations) in 81.33 seconds (90.40 work units)
    Thread count was 1 (of 96 available processors)
    
    Solution count 7: 8.97159 9.03054 9.18496 ... 12.9479
    
    Optimal solution found (tolerance 1.00e-06)
    Best objective 8.971589178585e+00, best bound 8.971589178585e+00, gap 0.0000%
    
    User-callback calls 24140, time in user-callback 0.00 sec

... Solving fixed model...

    Gurobi Optimizer version 13.0.0 build v13.0.0rc1 (linux64 - "Oracle Linux Server 9.7")
    
    CPU model: AMD EPYC 7643 48-Core Processor, instruction set [SSE2|AVX|AVX2]
    Thread count: 48 physical cores, 96 logical processors, using up to 1 threads
    
    Non-default parameters:
    TimeLimit  300
    MIPGap  1e-06
    LogToConsole  0
    NonConvex  2
    Threads  1
    
    Optimize a model with 1122 rows, 533 columns and 2496 nonzeros (Min)
    Model fingerprint: 0x819df4ec
    Model has 14 linear objective coefficients
    Model has 42 quadratic constraints
    Coefficient statistics:
      Matrix range     [1e+00, 1e+02]
      QMatrix range    [2e-03, 2e+00]
      Objective range  [1e+00, 1e+00]
      Bounds range     [1e+00, 1e+02]
      RHS range        [1e+00, 1e+00]
    Presolve removed 1120 rows and 504 columns
    Presolve time: 0.00s
    Presolved: 99 rows, 112 columns, 254 nonzeros
    Presolved model has 14 second-order cone constraints
    Ordering time: 0.00s
    
    Barrier statistics:
     AA' NZ     : 1.419e+03
     Factor NZ  : 1.644e+03
     Factor Ops : 3.637e+04 (less than 1 second per iteration)
     Threads    : 1
    
                      Objective                Residual
    Iter       Primal          Dual         Primal    Dual     Compl     Time
       0   1.17371335e+03 -8.30171506e+02  1.85e+01 4.65e+00  2.27e+01     0s
       1   1.06161155e+02 -1.86010019e+02  2.03e-05 5.12e-06  1.87e+00     0s
       2   1.32908154e+01 -3.69552596e+01  5.56e-07 1.07e-06  3.22e-01     0s
       3   1.13012674e+01  2.87179326e+00  1.90e-10 1.11e-07  5.40e-02     0s
       4   9.36626688e+00  8.35660724e+00  4.22e-15 9.54e-09  6.47e-03     0s
       5   8.98282943e+00  8.91956129e+00  1.78e-14 2.67e-10  4.06e-04     0s
       6   8.97172137e+00  8.97105358e+00  8.05e-13 2.96e-12  4.28e-06     0s
       7   8.97160124e+00  8.97155234e+00  1.52e-10 3.00e-13  3.14e-07     0s
       8   8.97159113e+00  8.97157844e+00  7.13e-09 7.22e-12  8.13e-08     0s
       9   8.97158927e+00  8.97158314e+00  2.63e-10 5.68e-12  3.93e-08     0s
    
    Barrier solved model in 9 iterations and 0.00 seconds (0.00 work units)
    Optimal objective 8.97158927e+00
    
    
    User-callback calls 0, time in user-callback 0.00 sec
    Warning: to get QCP duals, please set parameter QCPDual to 1

--- Reading solution for model GAMS_MODEL
***
*** Solver did not provide marginals for model GAMS_MODEL
***
--- Executing after solve: elapsed 0:01:21.392
--- model.gms(3834) 4 Mb
--- model.gms(5583) 6 Mb
--- Putfile results /local/scratch/a/sgusev/repos/k_means/data/gams_gurobi_gdp.hull_exact/no_mode/2026-02-14_23-32-47/original/results.dat
--- Putfile statresults /local/scratch/a/sgusev/repos/k_means/data/gams_gurobi_gdp.hull_exact/no_mode/2026-02-14_23-32-47/original/resultsstat.dat
*** Status: Normal completion
--- Job model.gms Stop 02/14/26 23:34:09 elapsed 0:01:21.398
Original problem solved. Time taken: 81.9910295009613 seconds
Original objective value: 8.971589269023752
